c SAT Generator for power-law distributed variable frequencies
c -g u -v 20 -c 91 -k 3 -p 2.750000 -b 3.200000 -f /home/schmidt/Devel/ni-kop-sat/data/ensemble/ruf20-91/ruf20-91-855 -u 1 -U 1 -s 2427291398
p cnf 20 91
10 -11 20 0
1 -7 -17 0
1 5 -12 0
-1 -10 -20 0
-2 4 -6 0
8 15 -16 0
-1 2 -3 0
-5 -13 -14 0
-7 10 -15 0
7 -11 19 0
3 -9 -15 0
4 -14 -15 0
-4 5 -15 0
10 -11 -19 0
-1 13 18 0
3 5 17 0
-1 6 -10 0
-7 14 19 0
-3 18 20 0
1 -7 20 0
-3 5 6 0
-7 -11 -20 0
17 19 20 0
-1 11 15 0
5 -9 -18 0
7 10 20 0
4 -5 -20 0
4 -17 -18 0
11 14 17 0
-1 -3 -5 0
-10 -18 19 0
-2 5 -11 0
-10 11 -16 0
9 12 18 0
-3 -5 -12 0
1 13 20 0
1 5 11 0
1 -12 18 0
-7 -15 -19 0
7 -9 -20 0
11 17 19 0
-18 19 20 0
3 9 -20 0
-1 5 -16 0
-7 -10 16 0
-5 18 -20 0
-3 6 10 0
-1 16 20 0
-5 10 -20 0
-2 17 19 0
-3 -6 16 0
1 -3 -10 0
14 15 17 0
2 9 -17 0
-2 -6 -8 0
-1 4 15 0
1 -4 6 0
-1 3 16 0
7 -9 -11 0
-2 7 -17 0
-4 -11 -15 0
1 -6 16 0
3 8 -20 0
-2 -3 -9 0
-8 9 -12 0
-7 10 -13 0
4 14 19 0
-2 4 20 0
-1 9 -20 0
-8 13 20 0
-2 6 -11 0
5 -9 -14 0
-3 -6 20 0
-4 8 19 0
5 15 17 0
-11 15 16 0
10 13 -15 0
-4 9 -20 0
4 9 -13 0
-3 -15 16 0
3 -11 12 0
3 -8 12 0
-2 -14 19 0
-5 6 -15 0
-1 -3 -11 0
5 11 13 0
-7 12 14 0
-3 15 18 0
-3 6 -16 0
-6 15 -18 0
-7 9 -14 0
